NAME          DCAP_3_4_2_500_SS330
ROWS
 N  OBJ
 L  CON1
 L  CON2
 L  CON3
 L  CON4
 L  CON5
 L  CON6
 L  CON7
 L  CON8
 L  CON9
 L  CON10
 L  CON11
 L  CON12
 E  CON13
 E  CON14
 E  CON15
 E  CON16
 E  CON17
 E  CON18
 E  CON19
 E  CON20
COLUMNS
    x[1,1]    OBJ       6.180167      CON1      1.000000    
    x[1,1]    CON7      -1.000000     CON8      -1.000000   
    x[1,2]    OBJ       5.039546      CON2      1.000000    
    x[1,2]    CON8      -1.000000   
    x[2,1]    OBJ       6.732585      CON3      1.000000    
    x[2,1]    CON9      -1.000000     CON10     -1.000000   
    x[2,2]    OBJ       7.443064      CON4      1.000000    
    x[2,2]    CON10     -1.000000   
    x[3,1]    OBJ       6.563535      CON5      1.000000    
    x[3,1]    CON11     -1.000000     CON12     -1.000000   
    x[3,2]    OBJ       6.054841      CON6      1.000000    
    x[3,2]    CON12     -1.000000   
    MARKER    'MARKER'                'INTORG'
    u[1,1]    OBJ       48.076654     CON1      -1.000000   
    u[1,2]    OBJ       49.466655     CON2      -1.000000   
    u[2,1]    OBJ       49.996186     CON3      -1.000000   
    u[2,2]    OBJ       32.230043     CON4      -1.000000   
    u[3,1]    OBJ       20.066487     CON5      -1.000000   
    u[3,2]    OBJ       27.484319     CON6      -1.000000   
    y[1,1,1]  OBJ       9.011977      CON7      0.578835    
    y[1,1,1]  CON13     1.000000    
    y[1,1,2]  OBJ       9.122006      CON8      1.384213    
    y[1,1,2]  CON14     1.000000    
    y[1,2,1]  OBJ       5.643963      CON7      1.259006    
    y[1,2,1]  CON15     1.000000    
    y[1,2,2]  OBJ       7.287835      CON8      0.920699    
    y[1,2,2]  CON16     1.000000    
    y[1,3,1]  OBJ       6.185467      CON7      0.937370    
    y[1,3,1]  CON17     1.000000    
    y[1,3,2]  OBJ       8.990425      CON8      0.528009    
    y[1,3,2]  CON18     1.000000    
    y[1,4,1]  OBJ       9.064621      CON7      0.684345    
    y[1,4,1]  CON19     1.000000    
    y[1,4,2]  OBJ       6.702780      CON8      1.010289    
    y[1,4,2]  CON20     1.000000    
    y[2,1,1]  OBJ       6.660432      CON9      0.578835    
    y[2,1,1]  CON13     1.000000    
    y[2,1,2]  OBJ       8.946299      CON10     1.384213    
    y[2,1,2]  CON14     1.000000    
    y[2,2,1]  OBJ       5.415559      CON9      1.259006    
    y[2,2,1]  CON15     1.000000    
    y[2,2,2]  OBJ       9.443154      CON10     0.920699    
    y[2,2,2]  CON16     1.000000    
    y[2,3,1]  OBJ       7.740828      CON9      0.937370    
    y[2,3,1]  CON17     1.000000    
    y[2,3,2]  OBJ       7.069592      CON10     0.528009    
    y[2,3,2]  CON18     1.000000    
    y[2,4,1]  OBJ       8.762755      CON9      0.684345    
    y[2,4,1]  CON19     1.000000    
    y[2,4,2]  OBJ       6.876442      CON10     1.010289    
    y[2,4,2]  CON20     1.000000    
    y[3,1,1]  OBJ       9.519538      CON11     0.578835    
    y[3,1,1]  CON13     1.000000    
    y[3,1,2]  OBJ       8.929390      CON12     1.384213    
    y[3,1,2]  CON14     1.000000    
    y[3,2,1]  OBJ       6.849832      CON11     1.259006    
    y[3,2,1]  CON15     1.000000    
    y[3,2,2]  OBJ       9.304835      CON12     0.920699    
    y[3,2,2]  CON16     1.000000    
    y[3,3,1]  OBJ       6.910387      CON11     0.937370    
    y[3,3,1]  CON17     1.000000    
    y[3,3,2]  OBJ       7.001917      CON12     0.528009    
    y[3,3,2]  CON18     1.000000    
    y[3,4,1]  OBJ       7.698973      CON11     0.684345    
    y[3,4,1]  CON19     1.000000    
    y[3,4,2]  OBJ       8.570596      CON12     1.010289    
    y[3,4,2]  CON20     1.000000    
    z[1,1]    OBJ       853.283456    CON13     1.000000    
    z[1,2]    OBJ       507.719304    CON14     1.000000    
    z[2,1]    OBJ       518.108278    CON15     1.000000    
    z[2,2]    OBJ       621.862472    CON16     1.000000    
    z[3,1]    OBJ       668.996644    CON17     1.000000    
    z[3,2]    OBJ       940.659705    CON18     1.000000    
    z[4,1]    OBJ       517.008961    CON19     1.000000    
    z[4,2]    OBJ       745.605454    CON20     1.000000    
    MARKER    'MARKER'                 'INTEND'
RHS
    RHS       CON1      -0.000000     CON2      -0.000000   
    RHS       CON3      -0.000000     CON4      -0.000000   
    RHS       CON5      -0.000000     CON6      -0.000000   
    RHS       CON7      -0.000000     CON8      -0.000000   
    RHS       CON9      -0.000000     CON10     -0.000000   
    RHS       CON11     -0.000000     CON12     -0.000000   
    RHS       CON13     1.000000      CON14     1.000000    
    RHS       CON15     1.000000      CON16     1.000000    
    RHS       CON17     1.000000      CON18     1.000000    
    RHS       CON19     1.000000      CON20     1.000000    
BOUNDS
 BV BOUND     u[1,1]  
 BV BOUND     u[1,2]  
 BV BOUND     u[2,1]  
 BV BOUND     u[2,2]  
 BV BOUND     u[3,1]  
 BV BOUND     u[3,2]  
 BV BOUND     y[1,1,1]
 BV BOUND     y[1,1,2]
 BV BOUND     y[1,2,1]
 BV BOUND     y[1,2,2]
 BV BOUND     y[1,3,1]
 BV BOUND     y[1,3,2]
 BV BOUND     y[1,4,1]
 BV BOUND     y[1,4,2]
 BV BOUND     y[2,1,1]
 BV BOUND     y[2,1,2]
 BV BOUND     y[2,2,1]
 BV BOUND     y[2,2,2]
 BV BOUND     y[2,3,1]
 BV BOUND     y[2,3,2]
 BV BOUND     y[2,4,1]
 BV BOUND     y[2,4,2]
 BV BOUND     y[3,1,1]
 BV BOUND     y[3,1,2]
 BV BOUND     y[3,2,1]
 BV BOUND     y[3,2,2]
 BV BOUND     y[3,3,1]
 BV BOUND     y[3,3,2]
 BV BOUND     y[3,4,1]
 BV BOUND     y[3,4,2]
 BV BOUND     z[1,1]  
 BV BOUND     z[1,2]  
 BV BOUND     z[2,1]  
 BV BOUND     z[2,2]  
 BV BOUND     z[3,1]  
 BV BOUND     z[3,2]  
 BV BOUND     z[4,1]  
 BV BOUND     z[4,2]  
ENDATA
